c description: Tseitin formula on Random 4-regular graph of 9 vertices, with odd charge
c generator: CNFgen (0.9.0)
c copyright: (C) 2012-2020 Massimo Lauria <massimo.lauria@uniroma1.it>
c url: https://massimolauria.net/cnfgen
c command line: cnfgen tseitin 9
c
p cnf 18 72
1 2 3 -4 0
1 2 -3 4 0
1 -2 3 4 0
1 -2 -3 -4 0
-1 2 3 4 0
-1 2 -3 -4 0
-1 -2 3 -4 0
-1 -2 -3 4 0
5 6 7 -8 0
5 6 -7 8 0
5 -6 7 8 0
5 -6 -7 -8 0
-5 6 7 8 0
-5 6 -7 -8 0
-5 -6 7 -8 0
-5 -6 -7 8 0
1 9 10 11 0
1 9 -10 -11 0
1 -9 10 -11 0
1 -9 -10 11 0
-1 9 10 -11 0
-1 9 -10 11 0
-1 -9 10 11 0
-1 -9 -10 -11 0
5 9 12 13 0
5 9 -12 -13 0
5 -9 12 -13 0
5 -9 -12 13 0
-5 9 12 -13 0
-5 9 -12 13 0
-5 -9 12 13 0
-5 -9 -12 -13 0
2 6 10 -14 0
2 6 -10 14 0
2 -6 10 14 0
2 -6 -10 -14 0
-2 6 10 14 0
-2 6 -10 -14 0
-2 -6 10 -14 0
-2 -6 -10 14 0
7 12 15 -16 0
7 12 -15 16 0
7 -12 15 16 0
7 -12 -15 -16 0
-7 12 15 16 0
-7 12 -15 -16 0
-7 -12 15 -16 0
-7 -12 -15 16 0
3 15 17 -18 0
3 15 -17 18 0
3 -15 17 18 0
3 -15 -17 -18 0
-3 15 17 18 0
-3 15 -17 -18 0
-3 -15 17 -18 0
-3 -15 -17 18 0
8 11 16 17 0
8 11 -16 -17 0
8 -11 16 -17 0
8 -11 -16 17 0
-8 11 16 -17 0
-8 11 -16 17 0
-8 -11 16 17 0
-8 -11 -16 -17 0
4 13 14 -18 0
4 13 -14 18 0
4 -13 14 18 0
4 -13 -14 -18 0
-4 13 14 18 0
-4 13 -14 -18 0
-4 -13 14 -18 0
-4 -13 -14 18 0
